
Gurobi 11.0.2 (win64) logging started Sun Aug 18 13:43:41 2024

Set parameter LogFile to value "D:\Documenti\Scuola\Laurea magistrale unibs\laurea-unibs-mkfsp\output\2024-08-18T10_03_15.889499\logs\instance11_bucket1.log"
Set parameter TimeLimit to value 350
Set parameter MIPGap to value 0
Gurobi Optimizer version 11.0.2 build v11.0.2rc0 (win64 - Windows 10.0 (19045.2))

CPU model: Intel(R) Core(TM) i5-4670 CPU @ 3.40GHz, instruction set [SSE2|AVX|AVX2]
Thread count: 4 physical cores, 4 logical processors, using up to 4 threads

Optimize a model with 2135 rows, 8550 columns and 238035 nonzeros
Model fingerprint: 0xe4e2840f
Variable types: 0 continuous, 8550 integer (8450 binary)
Coefficient statistics:
  Matrix range     [1e+00, 1e+03]
  Objective range  [6e+02, 8e+03]
  Bounds range     [1e+00, 1e+00]
  RHS range        [1e+00, 1e+05]
Found heuristic solution: objective -0.0000000
Presolve time: 0.46s
Presolved: 2135 rows, 8550 columns, 238035 nonzeros
Variable types: 0 continuous, 8550 integer (8450 binary)

Root relaxation: objective 5.791730e+05, 1215 iterations, 0.03 seconds (0.02 work units)

    Nodes    |    Current Node    |     Objective Bounds      |     Work
 Expl Unexpl |  Obj  Depth IntInf | Incumbent    BestBd   Gap | It/Node Time

H    0     0                    579173.00000 579173.000  0.00%     -    0s
     0     0 579173.000    0  471 579173.000 579173.000  0.00%     -    0s

Explored 1 nodes (1215 simplex iterations) in 0.54 seconds (0.46 work units)
Thread count was 4 (of 4 available processors)

Solution count 2: 579173 -0 

Optimal solution found (tolerance 0.00e+00)
Best objective 5.791730000000e+05, best bound 5.791730000000e+05, gap 0.0000%
